
n_substitutes = 3;
n_lessons = 4;

unavailabilities =
%%%%   Start , End
    [| 240, 300,
     | 240, 490,
     | 480, 540
    |];

lessons = 
%%%%  Start , End
    [| 540 , 600 ,  %% 1,2
     | 580 , 660 ,  %% 1, 2, 3
     | 350 , 490    %% 1, 2, 3
     | 545 , 590    %% 1, 2, 3  
    |];
